NAME : instances/clustered-mixed-tsp/instance-23.tsp
COMMENT : No Comment
TYPE : TSP
DIMENSION: 49
EDGE_WEIGHT_TYPE : EUC_2D
NODE_COORD_SECTION
1 1223 1537 
2 6 1633 
3 943 865 
4 1295 1074 
5 19 973 
6 460 1399 
7 1168 536 
8 70 879 
9 699 1908 
10 711 666 
11 1935 953 
12 1391 226 
13 223 179 
14 1231 1813 
15 200 1504 
16 785 289 
17 981 482 
18 1135 1345 
19 1102 1638 
20 516 1900 
21 997 1754 
22 1779 867 
23 461 1938 
24 1739 1333 
25 833 1323 
26 1149 442 
27 994 868 
28 1824 630 
29 596 1013 
30 245 705 
31 679 882 
32 301 903 
33 721 1539 
34 675 1018 
35 879 741 
36 649 1592 
37 1983 545 
38 698 47 
39 1097 512 
40 840 664 
41 780 1659 
42 59 469 
43 1623 950 
44 1442 736 
45 1253 633 
46 1246 1968 
47 144 1402 
48 754 776 
49 536 1173 
EOF
